n=214;
k_min=7;
k_max=7;
M=[| 159, 142, 160, 121, 143, 128, 143
 | 153, 139, 163, 122, 146, 124, 150
 | 151, 139, 166, 121, 145, 124, 150
 | 154, 141, 165, 120, 143, 126, 147
 | 152, 141, 164, 121, 143, 126, 150
 | 151, 142, 163, 122, 143, 127, 148
 | 153, 141, 163, 121, 143, 126, 149
 | 153, 142, 162, 121, 142, 127, 150
 | 155, 139, 166, 121, 145, 125, 146
 | 153, 143, 163, 120, 142, 127, 148
 | 150, 143, 163, 122, 142, 127, 149
 | 153, 144, 164, 120, 140, 128, 147
 | 150, 142, 163, 122, 143, 127, 150
 | 152, 144, 163, 120, 141, 128, 148
 | 152, 145, 163, 120, 140, 129, 148
 | 152, 144, 163, 120, 141, 128, 148
 | 153, 145, 165, 119, 139, 129, 146
 | 161, 141, 161, 121, 142, 129, 142
 | 160, 142, 162, 118, 142, 128, 145
 | 153, 143, 164, 120, 142, 127, 147
 | 153, 144, 164, 120, 141, 128, 146
 | 159, 141, 158, 121, 142, 129, 146
 | 154, 145, 164, 119, 140, 129, 146
 | 153, 144, 164, 120, 140, 128, 147
 | 155, 142, 164, 119, 142, 126, 148
 | 154, 143, 164, 120, 141, 128, 147
 | 154, 142, 165, 120, 142, 126, 147
 | 153, 144, 164, 120, 141, 128, 148
 | 152, 145, 163, 120, 140, 129, 147
 | 154, 143, 164, 120, 141, 127, 147
 | 153, 145, 164, 119, 139, 129, 146
 | 153, 144, 164, 119, 140, 128, 148
 | 153, 144, 164, 120, 140, 128, 147
 | 151, 145, 163, 120, 140, 129, 148
 | 153, 145, 164, 119, 139, 129, 146
 | 155, 143, 164, 119, 141, 127, 147
 | 158, 140, 166, 119, 143, 126, 143
 | 153, 145, 165, 119, 140, 129, 146
 | 163, 143, 159, 119, 139, 131, 143
 | 163, 143, 159, 119, 139, 131, 143
 | 154, 145, 166, 119, 139, 129, 146
 | 152, 145, 165, 119, 139, 129, 147
 | 154, 143, 164, 119, 141, 127, 147
 | 166, 144, 159, 118, 137, 131, 141
 | 154, 145, 164, 119, 139, 129, 146
 | 159, 143, 163, 119, 141, 128, 143
 | 156, 144, 163, 119, 140, 129, 147
 | 164, 144, 158, 119, 138, 132, 141
 | 162, 148, 157, 118, 136, 134, 141
 | 158, 143, 163, 119, 141, 128, 144
 | 164, 146, 157, 118, 137, 134, 141
 | 158, 145, 162, 119, 139, 130, 144
 | 157, 145, 164, 117, 137, 129, 148
 | 156, 146, 166, 116, 136, 129, 147
 | 156, 145, 165, 117, 137, 129, 148
 | 152, 148, 166, 117, 134, 132, 148
 | 153, 143, 163, 121, 142, 128, 148
 | 153, 144, 164, 120, 141, 128, 147
 | 153, 140, 163, 121, 144, 125, 149
 | 154, 141, 164, 120, 143, 126, 148
 | 158, 143, 162, 118, 141, 128, 147
 | 157, 141, 162, 120, 145, 127, 144
 | 164, 145, 160, 118, 138, 131, 141
 | 163, 143, 159, 120, 139, 132, 141
 | 164, 145, 159, 117, 138, 131, 142
 | 162, 144, 161, 117, 139, 130, 143
 | 161, 148, 158, 118, 136, 134, 142
 | 161, 149, 158, 117, 136, 134, 142
 | 161, 148, 158, 118, 136, 134, 142
 | 162, 149, 156, 118, 135, 135, 141
 | 151, 136, 159, 126, 151, 125, 148
 | 156, 140, 163, 122, 145, 126, 145
 | 150, 140, 166, 122, 144, 125, 149
 | 151, 140, 164, 122, 145, 125, 149
 | 150, 141, 165, 122, 144, 125, 149
 | 151, 141, 165, 122, 144, 126, 149
 | 153, 140, 163, 122, 146, 125, 147
 | 152, 141, 164, 122, 144, 126, 148
 | 153, 139, 163, 121, 145, 125, 151
 | 150, 142, 163, 123, 144, 127, 148
 | 150, 142, 161, 124, 145, 127, 147
 | 151, 140, 165, 121, 144, 125, 151
 | 153, 140, 164, 121, 144, 125, 149
 | 152, 141, 164, 122, 144, 126, 148
 | 149, 136, 157, 129, 153, 124, 149
 | 154, 141, 165, 120, 144, 126, 148
 | 151, 141, 164, 120, 143, 126, 151
 | 153, 140, 164, 121, 145, 125, 148
 | 152, 142, 164, 121, 143, 126, 148
 | 150, 143, 162, 123, 143, 128, 148
 | 158, 145, 162, 120, 140, 129, 143
 | 152, 143, 163, 120, 142, 128, 149
 | 152, 144, 161, 119, 141, 128, 151
 | 152, 142, 163, 120, 142, 127, 150
 | 151, 144, 162, 122, 141, 128, 149
 | 156, 142, 163, 120, 142, 127, 146
 | 158, 145, 161, 119, 139, 130, 143
 | 151, 148, 162, 120, 137, 132, 147
 | 153, 145, 160, 121, 139, 129, 149
 | 154, 145, 163, 118, 139, 129, 147
 | 153, 146, 162, 119, 138, 130, 149
 | 155, 150, 160, 119, 135, 133, 144
 | 152, 150, 162, 117, 133, 134, 148
 | 155, 149, 151, 124, 135, 143, 140
 | 158, 149, 153, 121, 135, 140, 141
 | 146, 153, 141, 125, 124, 166, 141
 | 146, 148, 141, 134, 134, 152, 141
 | 145, 149, 142, 133, 132, 155, 141
 | 155, 155, 144, 121, 127, 146, 149
 | 150, 166, 146, 118, 125, 143, 149
 | 145, 152, 143, 128, 128, 158, 142
 | 145, 152, 143, 128, 129, 158, 142
 | 146, 151, 143, 128, 129, 158, 143
 | 155, 140, 164, 121, 144, 126, 147
 | 156, 142, 163, 121, 143, 127, 145
 | 155, 141, 163, 121, 144, 126, 146
 | 155, 141, 163, 121, 144, 126, 145
 | 153, 139, 162, 124, 148, 125, 146
 | 153, 140, 163, 122, 145, 126, 147
 | 153, 139, 163, 122, 146, 125, 148
 | 156, 142, 164, 120, 143, 126, 146
 | 151, 142, 164, 122, 144, 126, 148
 | 152, 141, 164, 121, 144, 126, 149
 | 152, 140, 163, 122, 146, 125, 148
 | 155, 143, 164, 119, 142, 127, 147
 | 154, 143, 166, 120, 141, 127, 145
 | 155, 144, 164, 120, 141, 128, 146
 | 166, 146, 156, 117, 134, 134, 144
 | 162, 146, 157, 117, 135, 133, 146
 | 158, 148, 150, 120, 131, 141, 148
 | 155, 151, 149, 120, 128, 146, 148
 | 149, 150, 143, 127, 129, 155, 144
 | 155, 140, 163, 121, 145, 126, 146
 | 156, 139, 163, 123, 146, 126, 144
 | 154, 141, 164, 121, 144, 126, 148
 | 156, 142, 163, 121, 143, 127, 145
 | 154, 143, 163, 120, 142, 127, 148
 | 152, 142, 164, 121, 143, 127, 148
 | 150, 142, 164, 122, 143, 127, 150
 | 150, 142, 164, 122, 143, 126, 149
 | 153, 141, 164, 122, 145, 125, 147
 | 155, 142, 164, 120, 142, 127, 147
 | 152, 143, 163, 121, 142, 127, 148
 | 152, 142, 163, 122, 144, 127, 147
 | 154, 145, 163, 119, 139, 129, 147
 | 155, 144, 164, 120, 141, 128, 145
 | 157, 142, 162, 118, 142, 127, 148
 | 154, 141, 166, 119, 143, 126, 147
 | 154, 142, 165, 120, 142, 126, 147
 | 152, 146, 162, 121, 140, 130, 145
 | 153, 142, 164, 121, 143, 127, 146
 | 162, 142, 159, 120, 140, 131, 142
 | 157, 144, 159, 118, 140, 129, 148
 | 154, 141, 165, 120, 143, 126, 148
 | 155, 145, 164, 119, 140, 129, 145
 | 154, 144, 164, 119, 140, 128, 148
 | 156, 143, 164, 119, 141, 127, 147
 | 164, 144, 159, 118, 138, 131, 142
 | 157, 142, 163, 120, 142, 128, 144
 | 157, 143, 163, 121, 142, 128, 144
 | 157, 144, 161, 120, 141, 129, 144
 | 158, 143, 160, 118, 140, 129, 147
 | 161, 141, 161, 121, 142, 129, 142
 | 144, 135, 147, 142, 158, 129, 141
 | 159, 154, 155, 116, 129, 139, 146
 | 151, 166, 149, 117, 124, 149, 140
 | 149, 162, 149, 120, 125, 151, 141
 | 149, 156, 146, 121, 125, 151, 148
 | 151, 154, 148, 123, 127, 143, 152
 | 152, 154, 145, 121, 125, 150, 150
 | 151, 152, 144, 123, 126, 154, 147
 | 141, 136, 139, 166, 142, 134, 139
 | 141, 136, 139, 165, 142, 134, 139
 | 150, 152, 143, 124, 126, 155, 146
 | 166, 148, 152, 118, 130, 136, 146
 | 151, 156, 147, 119, 125, 149, 149
 | 161, 146, 157, 117, 136, 133, 147
 | 160, 148, 158, 116, 134, 134, 147
 | 159, 143, 156, 119, 139, 132, 149
 | 159, 145, 157, 117, 137, 132, 149
 | 147, 144, 152, 122, 140, 126, 166
 | 166, 148, 147, 118, 131, 134, 153
 | 157, 152, 144, 119, 127, 144, 153
 | 154, 159, 145, 119, 127, 143, 149
 | 147, 146, 145, 132, 142, 132, 152
 | 143, 135, 152, 136, 158, 125, 148
 | 143, 133, 150, 136, 166, 124, 144
 | 157, 143, 162, 119, 141, 128, 146
 | 154, 141, 152, 129, 141, 135, 144
 | 150, 139, 150, 131, 148, 132, 145
 | 154, 144, 155, 120, 140, 130, 153
 | 155, 146, 145, 123, 135, 132, 161
 | 153, 146, 144, 121, 132, 133, 166
 | 153, 145, 145, 125, 139, 132, 157
 | 152, 146, 145, 125, 138, 132, 157
 | 153, 147, 145, 121, 133, 133, 165
 | 154, 148, 145, 121, 132, 136, 162
 | 156, 147, 145, 122, 134, 132, 162
 | 155, 146, 145, 122, 133, 133, 163
 | 156, 145, 144, 123, 136, 132, 160
 | 154, 146, 145, 125, 138, 131, 159
 | 146, 147, 148, 135, 134, 139, 146
 | 153, 146, 145, 124, 137, 131, 160
 | 152, 145, 145, 126, 140, 132, 156
 | 155, 146, 145, 123, 136, 131, 160
 | 154, 146, 145, 125, 139, 132, 156
 | 154, 146, 145, 124, 138, 132, 157
 | 145, 140, 144, 138, 149, 131, 149
 | 156, 146, 144, 121, 132, 135, 161
 | 154, 144, 145, 124, 135, 135, 160
 | 153, 145, 145, 126, 140, 132, 156
 | 152, 146, 145, 125, 139, 133, 157
 | 152, 147, 146, 124, 138, 133, 157
 | 152, 146, 145, 124, 138, 133, 158 |];
 P=[3, 3, 3, 3, 3, 3, 3, 3, 3, 3, 3, 3, 3, 3, 3, 3, 3, 1, 3, 3, 3, 1, 3, 3, 3, 3, 3, 3, 3, 3, 3, 3, 3, 3, 3, 3, 3, 3, 1, 1, 3, 3, 3, 1, 3, 3, 3, 1, 1, 3, 1, 3, 3, 3, 3, 3, 3, 3, 3, 3, 3, 3, 1, 1, 1, 1, 1, 1, 1, 1, 3, 3, 3, 3, 3, 3, 3, 3, 3, 3, 3, 3, 3, 3, 3, 3, 3, 3, 3, 3, 3, 3, 3, 3, 3, 3, 3, 3, 3, 3, 3, 3, 3, 1, 1, 6, 6, 6, 2, 2, 6, 6, 6, 3, 3, 3, 3, 3, 3, 3, 3, 3, 3, 3, 3, 3, 3, 1, 1, 1, 2, 6, 3, 3, 3, 3, 3, 3, 3, 3, 3, 3, 3, 3, 3, 3, 3, 3, 3, 3, 3, 1, 3, 3, 3, 3, 3, 1, 3, 3, 3, 3, 1, 5, 1, 2, 2, 2, 2, 2, 2, 4, 4, 2, 1, 2, 1, 1, 1, 1, 7, 1, 2, 2, 7, 5, 5, 3, 1, 1, 1, 7, 7, 7, 7, 7, 7, 7, 7, 7, 7, 2, 7, 7, 7, 7, 7, 7, 7, 7, 7, 7, 7, 7 ];